Test: battleship-14-27-sat.cnf
Options: -no-inverting-opt -activity-look-freq=1
WARNING: for repeatability, setting FPU to use double precision
============================[ Problem Statistics ]=============================
|                                                                             |
|  Number of symmetries:           19                                         |
|  Number of invertingSyms:         0                                         |
|  Number of variables:           378                                         |
|  Number of clauses:            2653                                         |
|  Parse time:                   0.00 s                                       |
|                                                                             |
============================[ Search Statistics ]==============================
| Conflicts |          ORIGINAL         |          LEARNT          | Progress |
|           |    Vars  Clauses Literals |    Limit  Clauses Lit/Cl |          |
===============================================================================
|       100 |     378     2653    10206 |      972      100    125 |  0.001 % |
|       250 |     378     2653    10206 |     1070      279    123 |  0.001 % |
|       475 |     378     2653    10206 |     1177      556    139 |  0.001 % |
|       812 |     378     2653    10206 |     1294     1004    143 |  0.001 % |
|      1318 |     378     2653    10206 |     1424      954    140 |  0.001 % |
|      2077 |     378     2653    10206 |     1566     1254    133 |  0.001 % |
|      3216 |     378     2653    10206 |     1723     1029    124 |  0.001 % |
|      4924 |     378     2653    10206 |     1895     1458    149 |  0.001 % |
|      7486 |     378     2653    10206 |     2085     1817    157 |  0.001 % |
|     11330 |     378     2653    10206 |     2293     1453    150 |  0.001 % |
|     17096 |     378     2653    10206 |     2523     1561    139 |  0.001 % |
|     25745 |     378     2653    10206 |     2775     2438    151 |  0.001 % |
|     38719 |     378     2653    10206 |     3052     2124    159 |  0.001 % |
|     58180 |     378     2653    10206 |     3358     2373    159 |  0.001 % |
|     87372 |     378     2653    10206 |     3694     2202    163 |  0.001 % |
|    131161 |     378     2653    10206 |     4063     3431    160 |  0.001 % |
|    196845 |     378     2653    10206 |     4469     3234    169 |  0.001 % |
|    295371 |     378     2653    10206 |     4916     4720    169 |  0.001 % |
|    443160 |     378     2653    10206 |     5408     4500    160 |  0.001 % |
|    664843 |     378     2653    10206 |     5949     4985    150 |  0.001 % |
===============================================================================
restarts              : 2045
conflicts             : 963264         (10324 /sec)
symconflicts          : 73572          (789 /sec)
decisions             : 2152407        (0.00 % random) (23068 /sec)
propagations          : 70857100       (759407 /sec)
sympropagations       : 300539         (3221 /sec)
conflict literals     : 159226930      (5.43 % deleted)
literals     : 159226930      (5.43 % deleted)

HEURISTIC USAGES
random                : 0           
activity w/ lookahead : 2152406     
activity no lookahead : 0           
original sp           : 0           
sym count             : 0           

Memory used           : 18.00 MB
CPU time              : 93.3058 s

SATISFIABLE
